4
Lattice="6.914 0.0 0.0 0.0 7.476 0.0 0.0 0.0 9.563" Properties=species:S:1:pos:R:3:c_q:R:4:or_vec:R:3:axes:R:3 pbc="T T T"
X        0.00000000       3.73800000       4.78150000       0.61455475      -0.56258651      -0.55300894       0.00000000      -0.67970853       0.69148042      -0.24464493       2.50000000       2.50000000       1.00000000
X        3.45700000       3.73800000       0.00000000       0.78887417      -0.43827041      -0.43080922       0.00000000      -0.67970853       0.69148042       0.24464493       2.50000000       2.50000000       1.00000000
X        3.45700000       0.00000000       4.78150000       0.78887417       0.43827041      -0.43080922       0.00000000      -0.67970853      -0.69148042       0.24464493       2.50000000       2.50000000       1.00000000
X        0.00000000       0.00000000      -0.00000000       0.61455475       0.56258651      -0.55300894       0.00000000      -0.67970853      -0.69148042      -0.24464493       2.50000000       2.50000000       1.00000000
