4
Lattice="7.39 0.0 0.0 0.0 9.42 0.0 0.0 0.0 6.81" Properties=species:S:1:pos:R:3:or_vec:R:3:c_q:R:4:axes:R:3 pbc="T T T"
X        0.00000000       0.00000000       0.00000000      -0.68288591      -0.25336886      -0.68517958       0.39674956       0.31930579      -0.86060072       0.00000000       2.50000000       2.50000000       1.00000000
X        3.69500000       4.71000000       0.00000000       0.68288591      -0.25336886      -0.68517958       0.39674956       0.31930579       0.86060072      -0.00000000       2.50000000       2.50000000       1.00000000
X        0.00000000       4.71000000       3.40500000      -0.68288591       0.25336886      -0.68517958       0.39674956      -0.31930579      -0.86060072       0.00000000       2.50000000       2.50000000       1.00000000
X        3.69500000       0.00000000       3.40500000       0.68288591       0.25336886      -0.68517958       0.39674956      -0.31930579       0.86060072       0.00000000       2.50000000       2.50000000       1.00000000
